; benchmark generated from python API
(set-info :status unknown)
(declare-fun cell_1_4 () Int)
(declare-fun cell_2_1 () Int)
(declare-fun cell_3_7 () Int)
(declare-fun cell_4_6 () Int)
(declare-fun cell_5_9 () Int)
(declare-fun cell_6_2 () Int)
(declare-fun cell_7_5 () Int)
(declare-fun cell_1_1 () Int)
(declare-fun cell_3_1 () Int)
(declare-fun cell_4_1 () Int)
(declare-fun cell_5_1 () Int)
(declare-fun cell_6_1 () Int)
(declare-fun cell_7_1 () Int)
(declare-fun cell_8_1 () Int)
(declare-fun cell_9_1 () Int)
(declare-fun cell_1_2 () Int)
(declare-fun cell_2_2 () Int)
(declare-fun cell_3_2 () Int)
(declare-fun cell_4_2 () Int)
(declare-fun cell_5_2 () Int)
(declare-fun cell_7_2 () Int)
(declare-fun cell_8_2 () Int)
(declare-fun cell_9_2 () Int)
(declare-fun cell_1_3 () Int)
(declare-fun cell_2_3 () Int)
(declare-fun cell_3_3 () Int)
(declare-fun cell_4_3 () Int)
(declare-fun cell_5_3 () Int)
(declare-fun cell_6_3 () Int)
(declare-fun cell_7_3 () Int)
(declare-fun cell_8_3 () Int)
(declare-fun cell_9_3 () Int)
(declare-fun cell_2_4 () Int)
(declare-fun cell_3_4 () Int)
(declare-fun cell_4_4 () Int)
(declare-fun cell_5_4 () Int)
(declare-fun cell_6_4 () Int)
(declare-fun cell_7_4 () Int)
(declare-fun cell_8_4 () Int)
(declare-fun cell_9_4 () Int)
(declare-fun cell_1_5 () Int)
(declare-fun cell_2_5 () Int)
(declare-fun cell_3_5 () Int)
(declare-fun cell_4_5 () Int)
(declare-fun cell_5_5 () Int)
(declare-fun cell_6_5 () Int)
(declare-fun cell_8_5 () Int)
(declare-fun cell_9_5 () Int)
(declare-fun cell_1_6 () Int)
(declare-fun cell_2_6 () Int)
(declare-fun cell_3_6 () Int)
(declare-fun cell_5_6 () Int)
(declare-fun cell_6_6 () Int)
(declare-fun cell_7_6 () Int)
(declare-fun cell_8_6 () Int)
(declare-fun cell_9_6 () Int)
(declare-fun cell_1_7 () Int)
(declare-fun cell_2_7 () Int)
(declare-fun cell_4_7 () Int)
(declare-fun cell_5_7 () Int)
(declare-fun cell_6_7 () Int)
(declare-fun cell_7_7 () Int)
(declare-fun cell_8_7 () Int)
(declare-fun cell_9_7 () Int)
(declare-fun cell_1_8 () Int)
(declare-fun cell_2_8 () Int)
(declare-fun cell_3_8 () Int)
(declare-fun cell_4_8 () Int)
(declare-fun cell_5_8 () Int)
(declare-fun cell_6_8 () Int)
(declare-fun cell_7_8 () Int)
(declare-fun cell_8_8 () Int)
(declare-fun cell_9_8 () Int)
(declare-fun cell_1_9 () Int)
(declare-fun cell_2_9 () Int)
(declare-fun cell_3_9 () Int)
(declare-fun cell_4_9 () Int)
(declare-fun cell_6_9 () Int)
(declare-fun cell_7_9 () Int)
(declare-fun cell_8_9 () Int)
(declare-fun cell_9_9 () Int)
(assert
 (= cell_1_4 1))
(assert
 (= cell_2_1 1))
(assert
 (= cell_3_7 1))
(assert
 (= cell_4_6 1))
(assert
 (= cell_5_9 1))
(assert
 (= cell_6_2 1))
(assert
 (= cell_7_5 1))
(assert
 (let (($x5009 (= cell_1_1 9)))
 (let (($x7722 (= cell_1_1 8)))
 (let (($x414 (= cell_1_1 7)))
 (let (($x1091 (= cell_1_1 6)))
 (let (($x7299 (= cell_1_1 5)))
 (let (($x355 (= cell_1_1 4)))
 (let (($x6713 (= cell_1_1 3)))
 (let (($x6433 (= cell_1_1 2)))
 (let (($x9743 (= cell_1_1 1)))
 (or $x9743 $x6433 $x6713 $x355 $x7299 $x1091 $x414 $x7722 $x5009)))))))))))
(assert
 (let (($x4614 (= cell_2_1 1)))
 (or $x4614 (= cell_2_1 2) (= cell_2_1 3) (= cell_2_1 4) (= cell_2_1 5) (= cell_2_1 6) (= cell_2_1 7) (= cell_2_1 8) (= cell_2_1 9))))
(assert
 (let (($x1208 (= cell_3_1 9)))
 (let (($x9374 (= cell_3_1 8)))
 (let (($x7568 (= cell_3_1 7)))
 (let (($x9875 (= cell_3_1 6)))
 (let (($x5913 (= cell_3_1 5)))
 (let (($x3004 (= cell_3_1 4)))
 (let (($x5137 (= cell_3_1 3)))
 (let (($x6469 (= cell_3_1 2)))
 (let (($x7961 (= cell_3_1 1)))
 (or $x7961 $x6469 $x5137 $x3004 $x5913 $x9875 $x7568 $x9374 $x1208)))))))))))
(assert
 (let (($x5082 (= cell_4_1 9)))
 (let (($x7556 (= cell_4_1 8)))
 (let (($x3484 (= cell_4_1 7)))
 (let (($x5031 (= cell_4_1 6)))
 (let (($x7778 (= cell_4_1 5)))
 (let (($x1397 (= cell_4_1 4)))
 (let (($x6498 (= cell_4_1 3)))
 (let (($x6296 (= cell_4_1 2)))
 (let (($x2617 (= cell_4_1 1)))
 (or $x2617 $x6296 $x6498 $x1397 $x7778 $x5031 $x3484 $x7556 $x5082)))))))))))
(assert
 (let (($x5907 (= cell_5_1 9)))
 (let (($x3558 (= cell_5_1 8)))
 (let (($x5404 (= cell_5_1 7)))
 (let (($x7189 (= cell_5_1 6)))
 (let (($x6962 (= cell_5_1 5)))
 (let (($x8956 (= cell_5_1 4)))
 (let (($x2779 (= cell_5_1 3)))
 (let (($x3859 (= cell_5_1 2)))
 (let (($x342 (= cell_5_1 1)))
 (or $x342 $x3859 $x2779 $x8956 $x6962 $x7189 $x5404 $x3558 $x5907)))))))))))
(assert
 (let (($x4125 (= cell_6_1 9)))
 (let (($x1159 (= cell_6_1 8)))
 (let (($x2593 (= cell_6_1 7)))
 (let (($x7479 (= cell_6_1 6)))
 (let (($x7716 (= cell_6_1 5)))
 (let (($x4272 (= cell_6_1 4)))
 (let (($x8671 (= cell_6_1 3)))
 (let (($x5485 (= cell_6_1 2)))
 (let (($x5382 (= cell_6_1 1)))
 (or $x5382 $x5485 $x8671 $x4272 $x7716 $x7479 $x2593 $x1159 $x4125)))))))))))
(assert
 (let (($x815 (= cell_7_1 9)))
 (let (($x9468 (= cell_7_1 8)))
 (let (($x1898 (= cell_7_1 7)))
 (let (($x861 (= cell_7_1 6)))
 (let (($x6257 (= cell_7_1 5)))
 (let (($x5037 (= cell_7_1 4)))
 (let (($x5880 (= cell_7_1 3)))
 (let (($x790 (= cell_7_1 2)))
 (let (($x3652 (= cell_7_1 1)))
 (or $x3652 $x790 $x5880 $x5037 $x6257 $x861 $x1898 $x9468 $x815)))))))))))
(assert
 (let (($x2067 (= cell_8_1 1)))
 (or $x2067 (= cell_8_1 2) (= cell_8_1 3) (= cell_8_1 4) (= cell_8_1 5) (= cell_8_1 6) (= cell_8_1 7) (= cell_8_1 8) (= cell_8_1 9))))
(assert
 (let (($x7017 (= cell_9_1 1)))
 (or $x7017 (= cell_9_1 2) (= cell_9_1 3) (= cell_9_1 4) (= cell_9_1 5) (= cell_9_1 6) (= cell_9_1 7) (= cell_9_1 8) (= cell_9_1 9))))
(assert
 (let (($x5564 (= cell_1_2 9)))
 (let (($x3551 (= cell_1_2 8)))
 (let (($x7609 (= cell_1_2 7)))
 (let (($x5363 (= cell_1_2 6)))
 (let (($x3910 (= cell_1_2 5)))
 (let (($x2755 (= cell_1_2 4)))
 (let (($x452 (= cell_1_2 3)))
 (let (($x7287 (= cell_1_2 2)))
 (let (($x827 (= cell_1_2 1)))
 (or $x827 $x7287 $x452 $x2755 $x3910 $x5363 $x7609 $x3551 $x5564)))))))))))
(assert
 (let (($x6925 (= cell_2_2 9)))
 (let (($x1296 (= cell_2_2 8)))
 (let (($x1512 (= cell_2_2 7)))
 (let (($x3811 (= cell_2_2 6)))
 (let (($x2970 (= cell_2_2 5)))
 (let (($x9113 (= cell_2_2 4)))
 (let (($x8309 (= cell_2_2 3)))
 (let (($x23 (= cell_2_2 2)))
 (let (($x7123 (= cell_2_2 1)))
 (or $x7123 $x23 $x8309 $x9113 $x2970 $x3811 $x1512 $x1296 $x6925)))))))))))
(assert
 (let (($x2771 (= cell_3_2 9)))
 (let (($x3077 (= cell_3_2 8)))
 (let (($x3789 (= cell_3_2 7)))
 (let (($x327 (= cell_3_2 6)))
 (let (($x975 (= cell_3_2 5)))
 (let (($x8480 (= cell_3_2 4)))
 (let (($x5819 (= cell_3_2 3)))
 (let (($x6082 (= cell_3_2 2)))
 (let (($x8397 (= cell_3_2 1)))
 (or $x8397 $x6082 $x5819 $x8480 $x975 $x327 $x3789 $x3077 $x2771)))))))))))
(assert
 (let (($x299 (= cell_4_2 9)))
 (let (($x1243 (= cell_4_2 8)))
 (let (($x7269 (= cell_4_2 7)))
 (let (($x4722 (= cell_4_2 6)))
 (let (($x3085 (= cell_4_2 5)))
 (let (($x8067 (= cell_4_2 4)))
 (let (($x8126 (= cell_4_2 3)))
 (let (($x9676 (= cell_4_2 2)))
 (let (($x8467 (= cell_4_2 1)))
 (or $x8467 $x9676 $x8126 $x8067 $x3085 $x4722 $x7269 $x1243 $x299)))))))))))
(assert
 (let (($x3617 (= cell_5_2 9)))
 (let (($x3362 (= cell_5_2 8)))
 (let (($x3488 (= cell_5_2 7)))
 (let (($x3847 (= cell_5_2 6)))
 (let (($x2513 (= cell_5_2 5)))
 (let (($x673 (= cell_5_2 4)))
 (let (($x8319 (= cell_5_2 3)))
 (let (($x3868 (= cell_5_2 2)))
 (let (($x7901 (= cell_5_2 1)))
 (or $x7901 $x3868 $x8319 $x673 $x2513 $x3847 $x3488 $x3362 $x3617)))))))))))
(assert
 (let (($x6886 (= cell_6_2 1)))
 (or $x6886 (= cell_6_2 2) (= cell_6_2 3) (= cell_6_2 4) (= cell_6_2 5) (= cell_6_2 6) (= cell_6_2 7) (= cell_6_2 8) (= cell_6_2 9))))
(assert
 (let (($x2877 (= cell_7_2 9)))
 (let (($x145 (= cell_7_2 8)))
 (let (($x4012 (= cell_7_2 7)))
 (let (($x7167 (= cell_7_2 6)))
 (let (($x4237 (= cell_7_2 5)))
 (let (($x3283 (= cell_7_2 4)))
 (let (($x1004 (= cell_7_2 3)))
 (let (($x624 (= cell_7_2 2)))
 (let (($x7398 (= cell_7_2 1)))
 (or $x7398 $x624 $x1004 $x3283 $x4237 $x7167 $x4012 $x145 $x2877)))))))))))
(assert
 (let (($x10067 (= cell_8_2 1)))
 (or $x10067 (= cell_8_2 2) (= cell_8_2 3) (= cell_8_2 4) (= cell_8_2 5) (= cell_8_2 6) (= cell_8_2 7) (= cell_8_2 8) (= cell_8_2 9))))
(assert
 (let (($x8682 (= cell_9_2 1)))
 (or $x8682 (= cell_9_2 2) (= cell_9_2 3) (= cell_9_2 4) (= cell_9_2 5) (= cell_9_2 6) (= cell_9_2 7) (= cell_9_2 8) (= cell_9_2 9))))
(assert
 (let (($x7069 (= cell_1_3 9)))
 (let (($x7699 (= cell_1_3 8)))
 (let (($x3673 (= cell_1_3 7)))
 (let (($x6034 (= cell_1_3 6)))
 (let (($x6994 (= cell_1_3 5)))
 (let (($x435 (= cell_1_3 4)))
 (let (($x3450 (= cell_1_3 3)))
 (let (($x5335 (= cell_1_3 2)))
 (let (($x7551 (= cell_1_3 1)))
 (or $x7551 $x5335 $x3450 $x435 $x6994 $x6034 $x3673 $x7699 $x7069)))))))))))
(assert
 (let (($x4749 (= cell_2_3 1)))
 (or $x4749 (= cell_2_3 2) (= cell_2_3 3) (= cell_2_3 4) (= cell_2_3 5) (= cell_2_3 6) (= cell_2_3 7) (= cell_2_3 8) (= cell_2_3 9))))
(assert
 (let (($x4258 (= cell_3_3 9)))
 (let (($x6772 (= cell_3_3 8)))
 (let (($x8139 (= cell_3_3 7)))
 (let (($x8511 (= cell_3_3 6)))
 (let (($x4573 (= cell_3_3 5)))
 (let (($x1690 (= cell_3_3 4)))
 (let (($x6124 (= cell_3_3 3)))
 (let (($x2739 (= cell_3_3 2)))
 (let (($x857 (= cell_3_3 1)))
 (or $x857 $x2739 $x6124 $x1690 $x4573 $x8511 $x8139 $x6772 $x4258)))))))))))
(assert
 (let (($x7368 (= cell_4_3 9)))
 (let (($x7658 (= cell_4_3 8)))
 (let (($x3075 (= cell_4_3 7)))
 (let (($x2945 (= cell_4_3 6)))
 (let (($x4055 (= cell_4_3 5)))
 (let (($x995 (= cell_4_3 4)))
 (let (($x9802 (= cell_4_3 3)))
 (let (($x615 (= cell_4_3 2)))
 (let (($x7170 (= cell_4_3 1)))
 (or $x7170 $x615 $x9802 $x995 $x4055 $x2945 $x3075 $x7658 $x7368)))))))))))
(assert
 (let (($x7898 (= cell_5_3 9)))
 (let (($x4240 (= cell_5_3 8)))
 (let (($x6935 (= cell_5_3 7)))
 (let (($x454 (= cell_5_3 6)))
 (let (($x5301 (= cell_5_3 5)))
 (let (($x4391 (= cell_5_3 4)))
 (let (($x5906 (= cell_5_3 3)))
 (let (($x1706 (= cell_5_3 2)))
 (let (($x1800 (= cell_5_3 1)))
 (or $x1800 $x1706 $x5906 $x4391 $x5301 $x454 $x6935 $x4240 $x7898)))))))))))
(assert
 (let (($x512 (= cell_6_3 1)))
 (or $x512 (= cell_6_3 2) (= cell_6_3 3) (= cell_6_3 4) (= cell_6_3 5) (= cell_6_3 6) (= cell_6_3 7) (= cell_6_3 8) (= cell_6_3 9))))
(assert
 (let (($x889 (= cell_7_3 9)))
 (let (($x5857 (= cell_7_3 8)))
 (let (($x2844 (= cell_7_3 7)))
 (let (($x5548 (= cell_7_3 6)))
 (let (($x5288 (= cell_7_3 5)))
 (let (($x3122 (= cell_7_3 4)))
 (let (($x2324 (= cell_7_3 3)))
 (let (($x1776 (= cell_7_3 2)))
 (let (($x6927 (= cell_7_3 1)))
 (or $x6927 $x1776 $x2324 $x3122 $x5288 $x5548 $x2844 $x5857 $x889)))))))))))
(assert
 (or (= cell_8_3 1) (= cell_8_3 2) (= cell_8_3 3) (= cell_8_3 4) (= cell_8_3 5) (= cell_8_3 6) (= cell_8_3 7) (= cell_8_3 8) (= cell_8_3 9)))
(assert
 (or (= cell_9_3 1) (= cell_9_3 2) (= cell_9_3 3) (= cell_9_3 4) (= cell_9_3 5) (= cell_9_3 6) (= cell_9_3 7) (= cell_9_3 8) (= cell_9_3 9)))
(assert
 (let (($x9561 (= cell_1_4 1)))
 (or $x9561 (= cell_1_4 2) (= cell_1_4 3) (= cell_1_4 4) (= cell_1_4 5) (= cell_1_4 6) (= cell_1_4 7) (= cell_1_4 8) (= cell_1_4 9))))
(assert
 (let (($x1331 (= cell_2_4 1)))
 (or $x1331 (= cell_2_4 2) (= cell_2_4 3) (= cell_2_4 4) (= cell_2_4 5) (= cell_2_4 6) (= cell_2_4 7) (= cell_2_4 8) (= cell_2_4 9))))
(assert
 (let (($x7801 (= cell_3_4 9)))
 (let (($x8091 (= cell_3_4 8)))
 (let (($x4334 (= cell_3_4 7)))
 (let (($x1153 (= cell_3_4 6)))
 (let (($x1610 (= cell_3_4 5)))
 (let (($x8821 (= cell_3_4 4)))
 (let (($x2714 (= cell_3_4 3)))
 (let (($x8926 (= cell_3_4 2)))
 (let (($x7797 (= cell_3_4 1)))
 (or $x7797 $x8926 $x2714 $x8821 $x1610 $x1153 $x4334 $x8091 $x7801)))))))))))
(assert
 (let (($x2257 (= cell_4_4 9)))
 (let (($x7486 (= cell_4_4 8)))
 (let (($x2602 (= cell_4_4 7)))
 (let (($x2812 (= cell_4_4 6)))
 (let (($x4093 (= cell_4_4 5)))
 (let (($x4028 (= cell_4_4 4)))
 (let (($x8916 (= cell_4_4 3)))
 (let (($x8790 (= cell_4_4 2)))
 (let (($x9481 (= cell_4_4 1)))
 (or $x9481 $x8790 $x8916 $x4028 $x4093 $x2812 $x2602 $x7486 $x2257)))))))))))
(assert
 (let (($x4987 (= cell_5_4 9)))
 (let (($x461 (= cell_5_4 8)))
 (let (($x6004 (= cell_5_4 7)))
 (let (($x1169 (= cell_5_4 6)))
 (let (($x2709 (= cell_5_4 5)))
 (let (($x237 (= cell_5_4 4)))
 (let (($x3642 (= cell_5_4 3)))
 (let (($x1086 (= cell_5_4 2)))
 (let (($x1266 (= cell_5_4 1)))
 (or $x1266 $x1086 $x3642 $x237 $x2709 $x1169 $x6004 $x461 $x4987)))))))))))
(assert
 (let (($x5349 (= cell_6_4 1)))
 (or $x5349 (= cell_6_4 2) (= cell_6_4 3) (= cell_6_4 4) (= cell_6_4 5) (= cell_6_4 6) (= cell_6_4 7) (= cell_6_4 8) (= cell_6_4 9))))
(assert
 (let (($x6100 (= cell_7_4 9)))
 (let (($x8176 (= cell_7_4 8)))
 (let (($x1308 (= cell_7_4 7)))
 (let (($x5487 (= cell_7_4 6)))
 (let (($x5055 (= cell_7_4 5)))
 (let (($x2811 (= cell_7_4 4)))
 (let (($x8500 (= cell_7_4 3)))
 (let (($x9564 (= cell_7_4 2)))
 (let (($x9335 (= cell_7_4 1)))
 (or $x9335 $x9564 $x8500 $x2811 $x5055 $x5487 $x1308 $x8176 $x6100)))))))))))
(assert
 (let (($x3684 (= cell_8_4 1)))
 (or $x3684 (= cell_8_4 2) (= cell_8_4 3) (= cell_8_4 4) (= cell_8_4 5) (= cell_8_4 6) (= cell_8_4 7) (= cell_8_4 8) (= cell_8_4 9))))
(assert
 (let (($x9215 (= cell_9_4 1)))
 (or $x9215 (= cell_9_4 2) (= cell_9_4 3) (= cell_9_4 4) (= cell_9_4 5) (= cell_9_4 6) (= cell_9_4 7) (= cell_9_4 8) (= cell_9_4 9))))
(assert
 (let (($x8391 (= cell_1_5 9)))
 (let (($x445 (= cell_1_5 8)))
 (let (($x2647 (= cell_1_5 7)))
 (let (($x4522 (= cell_1_5 6)))
 (let (($x8169 (= cell_1_5 5)))
 (let (($x5861 (= cell_1_5 4)))
 (let (($x5620 (= cell_1_5 3)))
 (let (($x8272 (= cell_1_5 2)))
 (let (($x9424 (= cell_1_5 1)))
 (or $x9424 $x8272 $x5620 $x5861 $x8169 $x4522 $x2647 $x445 $x8391)))))))))))
(assert
 (let (($x958 (= cell_2_5 9)))
 (let (($x3211 (= cell_2_5 8)))
 (let (($x9950 (= cell_2_5 7)))
 (let (($x6162 (= cell_2_5 6)))
 (let (($x7050 (= cell_2_5 5)))
 (let (($x1983 (= cell_2_5 4)))
 (let (($x9835 (= cell_2_5 3)))
 (let (($x3035 (= cell_2_5 2)))
 (let (($x36 (= cell_2_5 1)))
 (or $x36 $x3035 $x9835 $x1983 $x7050 $x6162 $x9950 $x3211 $x958)))))))))))
(assert
 (let (($x7569 (= cell_3_5 9)))
 (let (($x1053 (= cell_3_5 8)))
 (let (($x7999 (= cell_3_5 7)))
 (let (($x6948 (= cell_3_5 6)))
 (let (($x4760 (= cell_3_5 5)))
 (let (($x9455 (= cell_3_5 4)))
 (let (($x2629 (= cell_3_5 3)))
 (let (($x2727 (= cell_3_5 2)))
 (let (($x4205 (= cell_3_5 1)))
 (or $x4205 $x2727 $x2629 $x9455 $x4760 $x6948 $x7999 $x1053 $x7569)))))))))))
(assert
 (let (($x5540 (= cell_4_5 9)))
 (let (($x8588 (= cell_4_5 8)))
 (let (($x1655 (= cell_4_5 7)))
 (let (($x2655 (= cell_4_5 6)))
 (let (($x942 (= cell_4_5 5)))
 (let (($x5905 (= cell_4_5 4)))
 (let (($x121 (= cell_4_5 3)))
 (let (($x832 (= cell_4_5 2)))
 (let (($x7109 (= cell_4_5 1)))
 (or $x7109 $x832 $x121 $x5905 $x942 $x2655 $x1655 $x8588 $x5540)))))))))))
(assert
 (let (($x3412 (= cell_5_5 9)))
 (let (($x1479 (= cell_5_5 8)))
 (let (($x5415 (= cell_5_5 7)))
 (let (($x9219 (= cell_5_5 6)))
 (let (($x1187 (= cell_5_5 5)))
 (let (($x5496 (= cell_5_5 4)))
 (let (($x3498 (= cell_5_5 3)))
 (let (($x4040 (= cell_5_5 2)))
 (let (($x7196 (= cell_5_5 1)))
 (or $x7196 $x4040 $x3498 $x5496 $x1187 $x9219 $x5415 $x1479 $x3412)))))))))))
(assert
 (let (($x1645 (= cell_6_5 9)))
 (let (($x6692 (= cell_6_5 8)))
 (let (($x8354 (= cell_6_5 7)))
 (let (($x3594 (= cell_6_5 6)))
 (let (($x2918 (= cell_6_5 5)))
 (let (($x3510 (= cell_6_5 4)))
 (let (($x5697 (= cell_6_5 3)))
 (let (($x2628 (= cell_6_5 2)))
 (let (($x9248 (= cell_6_5 1)))
 (or $x9248 $x2628 $x5697 $x3510 $x2918 $x3594 $x8354 $x6692 $x1645)))))))))))
(assert
 (let (($x2687 (= cell_7_5 1)))
 (or $x2687 (= cell_7_5 2) (= cell_7_5 3) (= cell_7_5 4) (= cell_7_5 5) (= cell_7_5 6) (= cell_7_5 7) (= cell_7_5 8) (= cell_7_5 9))))
(assert
 (let (($x1992 (= cell_8_5 1)))
 (or $x1992 (= cell_8_5 2) (= cell_8_5 3) (= cell_8_5 4) (= cell_8_5 5) (= cell_8_5 6) (= cell_8_5 7) (= cell_8_5 8) (= cell_8_5 9))))
(assert
 (let (($x3706 (= cell_9_5 1)))
 (or $x3706 (= cell_9_5 2) (= cell_9_5 3) (= cell_9_5 4) (= cell_9_5 5) (= cell_9_5 6) (= cell_9_5 7) (= cell_9_5 8) (= cell_9_5 9))))
(assert
 (let (($x6651 (= cell_1_6 9)))
 (let (($x3997 (= cell_1_6 8)))
 (let (($x416 (= cell_1_6 7)))
 (let (($x4371 (= cell_1_6 6)))
 (let (($x7622 (= cell_1_6 5)))
 (let (($x5075 (= cell_1_6 4)))
 (let (($x8117 (= cell_1_6 3)))
 (let (($x6437 (= cell_1_6 2)))
 (let (($x366 (= cell_1_6 1)))
 (or $x366 $x6437 $x8117 $x5075 $x7622 $x4371 $x416 $x3997 $x6651)))))))))))
(assert
 (let (($x8898 (= cell_2_6 9)))
 (let (($x4120 (= cell_2_6 8)))
 (let (($x3327 (= cell_2_6 7)))
 (let (($x283 (= cell_2_6 6)))
 (let (($x6821 (= cell_2_6 5)))
 (let (($x9294 (= cell_2_6 4)))
 (let (($x2677 (= cell_2_6 3)))
 (let (($x4098 (= cell_2_6 2)))
 (let (($x2311 (= cell_2_6 1)))
 (or $x2311 $x4098 $x2677 $x9294 $x6821 $x283 $x3327 $x4120 $x8898)))))))))))
(assert
 (let (($x6213 (= cell_3_6 9)))
 (let (($x8190 (= cell_3_6 8)))
 (let (($x9369 (= cell_3_6 7)))
 (let (($x2500 (= cell_3_6 6)))
 (let (($x9085 (= cell_3_6 5)))
 (let (($x2627 (= cell_3_6 4)))
 (let (($x10009 (= cell_3_6 3)))
 (let (($x2738 (= cell_3_6 2)))
 (let (($x6683 (= cell_3_6 1)))
 (or $x6683 $x2738 $x10009 $x2627 $x9085 $x2500 $x9369 $x8190 $x6213)))))))))))
(assert
 (let (($x1102 (= cell_4_6 1)))
 (or $x1102 (= cell_4_6 2) (= cell_4_6 3) (= cell_4_6 4) (= cell_4_6 5) (= cell_4_6 6) (= cell_4_6 7) (= cell_4_6 8) (= cell_4_6 9))))
(assert
 (let (($x4712 (= cell_5_6 9)))
 (let (($x9323 (= cell_5_6 8)))
 (let (($x2951 (= cell_5_6 7)))
 (let (($x2057 (= cell_5_6 6)))
 (let (($x1384 (= cell_5_6 5)))
 (let (($x7016 (= cell_5_6 4)))
 (let (($x2477 (= cell_5_6 3)))
 (let (($x2409 (= cell_5_6 2)))
 (let (($x7548 (= cell_5_6 1)))
 (or $x7548 $x2409 $x2477 $x7016 $x1384 $x2057 $x2951 $x9323 $x4712)))))))))))
(assert
 (let (($x5684 (= cell_6_6 1)))
 (or $x5684 (= cell_6_6 2) (= cell_6_6 3) (= cell_6_6 4) (= cell_6_6 5) (= cell_6_6 6) (= cell_6_6 7) (= cell_6_6 8) (= cell_6_6 9))))
(assert
 (let (($x10189 (= cell_7_6 1)))
 (or $x10189 (= cell_7_6 2) (= cell_7_6 3) (= cell_7_6 4) (= cell_7_6 5) (= cell_7_6 6) (= cell_7_6 7) (= cell_7_6 8) (= cell_7_6 9))))
(assert
 (let (($x3721 (= cell_8_6 1)))
 (or $x3721 (= cell_8_6 2) (= cell_8_6 3) (= cell_8_6 4) (= cell_8_6 5) (= cell_8_6 6) (= cell_8_6 7) (= cell_8_6 8) (= cell_8_6 9))))
(assert
 (let (($x609 (= cell_9_6 1)))
 (or $x609 (= cell_9_6 2) (= cell_9_6 3) (= cell_9_6 4) (= cell_9_6 5) (= cell_9_6 6) (= cell_9_6 7) (= cell_9_6 8) (= cell_9_6 9))))
(assert
 (let (($x8844 (= cell_1_7 9)))
 (let (($x3595 (= cell_1_7 8)))
 (let (($x9630 (= cell_1_7 7)))
 (let (($x7373 (= cell_1_7 6)))
 (let (($x6974 (= cell_1_7 5)))
 (let (($x6546 (= cell_1_7 4)))
 (let (($x10142 (= cell_1_7 3)))
 (let (($x1904 (= cell_1_7 2)))
 (let (($x10001 (= cell_1_7 1)))
 (or $x10001 $x1904 $x10142 $x6546 $x6974 $x7373 $x9630 $x3595 $x8844)))))))))))
(assert
 (let (($x3277 (= cell_2_7 9)))
 (let (($x1024 (= cell_2_7 8)))
 (let (($x7916 (= cell_2_7 7)))
 (let (($x6026 (= cell_2_7 6)))
 (let (($x7825 (= cell_2_7 5)))
 (let (($x5901 (= cell_2_7 4)))
 (let (($x989 (= cell_2_7 3)))
 (let (($x4758 (= cell_2_7 2)))
 (let (($x8243 (= cell_2_7 1)))
 (or $x8243 $x4758 $x989 $x5901 $x7825 $x6026 $x7916 $x1024 $x3277)))))))))))
(assert
 (let (($x2414 (= cell_3_7 1)))
 (or $x2414 (= cell_3_7 2) (= cell_3_7 3) (= cell_3_7 4) (= cell_3_7 5) (= cell_3_7 6) (= cell_3_7 7) (= cell_3_7 8) (= cell_3_7 9))))
(assert
 (let (($x4824 (= cell_4_7 9)))
 (let (($x5958 (= cell_4_7 8)))
 (let (($x5755 (= cell_4_7 7)))
 (let (($x4709 (= cell_4_7 6)))
 (let (($x4339 (= cell_4_7 5)))
 (let (($x8773 (= cell_4_7 4)))
 (let (($x2999 (= cell_4_7 3)))
 (let (($x1461 (= cell_4_7 2)))
 (let (($x2746 (= cell_4_7 1)))
 (or $x2746 $x1461 $x2999 $x8773 $x4339 $x4709 $x5755 $x5958 $x4824)))))))))))
(assert
 (let (($x7914 (= cell_5_7 9)))
 (let (($x2710 (= cell_5_7 8)))
 (let (($x3370 (= cell_5_7 7)))
 (let (($x2867 (= cell_5_7 6)))
 (let (($x2096 (= cell_5_7 5)))
 (let (($x3061 (= cell_5_7 4)))
 (let (($x2111 (= cell_5_7 3)))
 (let (($x2691 (= cell_5_7 2)))
 (let (($x1357 (= cell_5_7 1)))
 (or $x1357 $x2691 $x2111 $x3061 $x2096 $x2867 $x3370 $x2710 $x7914)))))))))))
(assert
 (let (($x6787 (= cell_6_7 1)))
 (or $x6787 (= cell_6_7 2) (= cell_6_7 3) (= cell_6_7 4) (= cell_6_7 5) (= cell_6_7 6) (= cell_6_7 7) (= cell_6_7 8) (= cell_6_7 9))))
(assert
 (let (($x6078 (= cell_7_7 1)))
 (or $x6078 (= cell_7_7 2) (= cell_7_7 3) (= cell_7_7 4) (= cell_7_7 5) (= cell_7_7 6) (= cell_7_7 7) (= cell_7_7 8) (= cell_7_7 9))))
(assert
 (let (($x4252 (= cell_8_7 1)))
 (or $x4252 (= cell_8_7 2) (= cell_8_7 3) (= cell_8_7 4) (= cell_8_7 5) (= cell_8_7 6) (= cell_8_7 7) (= cell_8_7 8) (= cell_8_7 9))))
(assert
 (let (($x6524 (= cell_9_7 1)))
 (or $x6524 (= cell_9_7 2) (= cell_9_7 3) (= cell_9_7 4) (= cell_9_7 5) (= cell_9_7 6) (= cell_9_7 7) (= cell_9_7 8) (= cell_9_7 9))))
(assert
 (let (($x8837 (= cell_1_8 9)))
 (let (($x406 (= cell_1_8 8)))
 (let (($x9548 (= cell_1_8 7)))
 (let (($x7236 (= cell_1_8 6)))
 (let (($x3120 (= cell_1_8 5)))
 (let (($x1630 (= cell_1_8 4)))
 (let (($x3810 (= cell_1_8 3)))
 (let (($x3326 (= cell_1_8 2)))
 (let (($x7884 (= cell_1_8 1)))
 (or $x7884 $x3326 $x3810 $x1630 $x3120 $x7236 $x9548 $x406 $x8837)))))))))))
(assert
 (let (($x8107 (= cell_2_8 9)))
 (let (($x3882 (= cell_2_8 8)))
 (let (($x3506 (= cell_2_8 7)))
 (let (($x8474 (= cell_2_8 6)))
 (let (($x5582 (= cell_2_8 5)))
 (let (($x4992 (= cell_2_8 4)))
 (let (($x9842 (= cell_2_8 3)))
 (let (($x8990 (= cell_2_8 2)))
 (let (($x7342 (= cell_2_8 1)))
 (or $x7342 $x8990 $x9842 $x4992 $x5582 $x8474 $x3506 $x3882 $x8107)))))))))))
(assert
 (let (($x8862 (= cell_3_8 1)))
 (or $x8862 (= cell_3_8 2) (= cell_3_8 3) (= cell_3_8 4) (= cell_3_8 5) (= cell_3_8 6) (= cell_3_8 7) (= cell_3_8 8) (= cell_3_8 9))))
(assert
 (let (($x5176 (= cell_4_8 9)))
 (let (($x1728 (= cell_4_8 8)))
 (let (($x2901 (= cell_4_8 7)))
 (let (($x6853 (= cell_4_8 6)))
 (let (($x2464 (= cell_4_8 5)))
 (let (($x1370 (= cell_4_8 4)))
 (let (($x2237 (= cell_4_8 3)))
 (let (($x277 (= cell_4_8 2)))
 (let (($x8879 (= cell_4_8 1)))
 (or $x8879 $x277 $x2237 $x1370 $x2464 $x6853 $x2901 $x1728 $x5176)))))))))))
(assert
 (let (($x4256 (= cell_5_8 9)))
 (let (($x9699 (= cell_5_8 8)))
 (let (($x5418 (= cell_5_8 7)))
 (let (($x3369 (= cell_5_8 6)))
 (let (($x2092 (= cell_5_8 5)))
 (let (($x7218 (= cell_5_8 4)))
 (let (($x1375 (= cell_5_8 3)))
 (let (($x7541 (= cell_5_8 2)))
 (let (($x8315 (= cell_5_8 1)))
 (or $x8315 $x7541 $x1375 $x7218 $x2092 $x3369 $x5418 $x9699 $x4256)))))))))))
(assert
 (let (($x8824 (= cell_6_8 1)))
 (or $x8824 (= cell_6_8 2) (= cell_6_8 3) (= cell_6_8 4) (= cell_6_8 5) (= cell_6_8 6) (= cell_6_8 7) (= cell_6_8 8) (= cell_6_8 9))))
(assert
 (let (($x8461 (= cell_7_8 1)))
 (or $x8461 (= cell_7_8 2) (= cell_7_8 3) (= cell_7_8 4) (= cell_7_8 5) (= cell_7_8 6) (= cell_7_8 7) (= cell_7_8 8) (= cell_7_8 9))))
(assert
 (let (($x3954 (= cell_8_8 1)))
 (or $x3954 (= cell_8_8 2) (= cell_8_8 3) (= cell_8_8 4) (= cell_8_8 5) (= cell_8_8 6) (= cell_8_8 7) (= cell_8_8 8) (= cell_8_8 9))))
(assert
 (let (($x4129 (= cell_9_8 1)))
 (or $x4129 (= cell_9_8 2) (= cell_9_8 3) (= cell_9_8 4) (= cell_9_8 5) (= cell_9_8 6) (= cell_9_8 7) (= cell_9_8 8) (= cell_9_8 9))))
(assert
 (let (($x2830 (= cell_1_9 9)))
 (let (($x688 (= cell_1_9 8)))
 (let (($x9547 (= cell_1_9 7)))
 (let (($x2282 (= cell_1_9 6)))
 (let (($x4409 (= cell_1_9 5)))
 (let (($x7588 (= cell_1_9 4)))
 (let (($x9241 (= cell_1_9 3)))
 (let (($x2818 (= cell_1_9 2)))
 (let (($x10161 (= cell_1_9 1)))
 (or $x10161 $x2818 $x9241 $x7588 $x4409 $x2282 $x9547 $x688 $x2830)))))))))))
(assert
 (let (($x1808 (= cell_2_9 9)))
 (let (($x9046 (= cell_2_9 8)))
 (let (($x51 (= cell_2_9 7)))
 (let (($x440 (= cell_2_9 6)))
 (let (($x5411 (= cell_2_9 5)))
 (let (($x9551 (= cell_2_9 4)))
 (let (($x3349 (= cell_2_9 3)))
 (let (($x3360 (= cell_2_9 2)))
 (let (($x4801 (= cell_2_9 1)))
 (or $x4801 $x3360 $x3349 $x9551 $x5411 $x440 $x51 $x9046 $x1808)))))))))))
(assert
 (let (($x709 (= cell_3_9 9)))
 (let (($x6758 (= cell_3_9 8)))
 (let (($x2136 (= cell_3_9 7)))
 (let (($x5323 (= cell_3_9 6)))
 (let (($x8313 (= cell_3_9 5)))
 (let (($x8242 (= cell_3_9 4)))
 (let (($x8449 (= cell_3_9 3)))
 (let (($x8729 (= cell_3_9 2)))
 (let (($x9399 (= cell_3_9 1)))
 (or $x9399 $x8729 $x8449 $x8242 $x8313 $x5323 $x2136 $x6758 $x709)))))))))))
(assert
 (let (($x8847 (= cell_4_9 9)))
 (let (($x1182 (= cell_4_9 8)))
 (let (($x7345 (= cell_4_9 7)))
 (let (($x7153 (= cell_4_9 6)))
 (let (($x9388 (= cell_4_9 5)))
 (let (($x5749 (= cell_4_9 4)))
 (let (($x4448 (= cell_4_9 3)))
 (let (($x9315 (= cell_4_9 2)))
 (let (($x9298 (= cell_4_9 1)))
 (or $x9298 $x9315 $x4448 $x5749 $x9388 $x7153 $x7345 $x1182 $x8847)))))))))))
(assert
 (let (($x1548 (= cell_5_9 1)))
 (or $x1548 (= cell_5_9 2) (= cell_5_9 3) (= cell_5_9 4) (= cell_5_9 5) (= cell_5_9 6) (= cell_5_9 7) (= cell_5_9 8) (= cell_5_9 9))))
(assert
 (let (($x506 (= cell_6_9 1)))
 (or $x506 (= cell_6_9 2) (= cell_6_9 3) (= cell_6_9 4) (= cell_6_9 5) (= cell_6_9 6) (= cell_6_9 7) (= cell_6_9 8) (= cell_6_9 9))))
(assert
 (let (($x8208 (= cell_7_9 1)))
 (or $x8208 (= cell_7_9 2) (= cell_7_9 3) (= cell_7_9 4) (= cell_7_9 5) (= cell_7_9 6) (= cell_7_9 7) (= cell_7_9 8) (= cell_7_9 9))))
(assert
 (let (($x3666 (= cell_8_9 1)))
 (or $x3666 (= cell_8_9 2) (= cell_8_9 3) (= cell_8_9 4) (= cell_8_9 5) (= cell_8_9 6) (= cell_8_9 7) (= cell_8_9 8) (= cell_8_9 9))))
(assert
 (let (($x721 (= cell_9_9 1)))
 (or $x721 (= cell_9_9 2) (= cell_9_9 3) (= cell_9_9 4) (= cell_9_9 5) (= cell_9_9 6) (= cell_9_9 7) (= cell_9_9 8) (= cell_9_9 9))))
(assert
 (and (distinct cell_1_1 cell_1_2 cell_1_3 cell_1_4 cell_1_5 cell_1_6 cell_1_7 cell_1_8 cell_1_9) true))
(assert
 (and (distinct cell_2_1 cell_2_2 cell_2_3 cell_2_4 cell_2_5 cell_2_6 cell_2_7 cell_2_8 cell_2_9) true))
(assert
 (and (distinct cell_3_1 cell_3_2 cell_3_3 cell_3_4 cell_3_5 cell_3_6 cell_3_7 cell_3_8 cell_3_9) true))
(assert
 (and (distinct cell_4_1 cell_4_2 cell_4_3 cell_4_4 cell_4_5 cell_4_6 cell_4_7 cell_4_8 cell_4_9) true))
(assert
 (and (distinct cell_5_1 cell_5_2 cell_5_3 cell_5_4 cell_5_5 cell_5_6 cell_5_7 cell_5_8 cell_5_9) true))
(assert
 (and (distinct cell_6_1 cell_6_2 cell_6_3 cell_6_4 cell_6_5 cell_6_6 cell_6_7 cell_6_8 cell_6_9) true))
(assert
 (and (distinct cell_7_1 cell_7_2 cell_7_3 cell_7_4 cell_7_5 cell_7_6 cell_7_7 cell_7_8 cell_7_9) true))
(assert
 (and (distinct cell_8_1 cell_8_2 cell_8_3 cell_8_4 cell_8_5 cell_8_6 cell_8_7 cell_8_8 cell_8_9) true))
(assert
 (and (distinct cell_9_1 cell_9_2 cell_9_3 cell_9_4 cell_9_5 cell_9_6 cell_9_7 cell_9_8 cell_9_9) true))
(assert
 (and (distinct cell_1_1 cell_2_1 cell_3_1 cell_4_1 cell_5_1 cell_6_1 cell_7_1 cell_8_1 cell_9_1) true))
(assert
 (and (distinct cell_1_2 cell_2_2 cell_3_2 cell_4_2 cell_5_2 cell_6_2 cell_7_2 cell_8_2 cell_9_2) true))
(assert
 (and (distinct cell_1_3 cell_2_3 cell_3_3 cell_4_3 cell_5_3 cell_6_3 cell_7_3 cell_8_3 cell_9_3) true))
(assert
 (and (distinct cell_1_4 cell_2_4 cell_3_4 cell_4_4 cell_5_4 cell_6_4 cell_7_4 cell_8_4 cell_9_4) true))
(assert
 (and (distinct cell_1_5 cell_2_5 cell_3_5 cell_4_5 cell_5_5 cell_6_5 cell_7_5 cell_8_5 cell_9_5) true))
(assert
 (and (distinct cell_1_6 cell_2_6 cell_3_6 cell_4_6 cell_5_6 cell_6_6 cell_7_6 cell_8_6 cell_9_6) true))
(assert
 (and (distinct cell_1_7 cell_2_7 cell_3_7 cell_4_7 cell_5_7 cell_6_7 cell_7_7 cell_8_7 cell_9_7) true))
(assert
 (and (distinct cell_1_8 cell_2_8 cell_3_8 cell_4_8 cell_5_8 cell_6_8 cell_7_8 cell_8_8 cell_9_8) true))
(assert
 (and (distinct cell_1_9 cell_2_9 cell_3_9 cell_4_9 cell_5_9 cell_6_9 cell_7_9 cell_8_9 cell_9_9) true))
(assert
 (and (distinct cell_1_1 cell_1_2 cell_1_3 cell_2_1 cell_2_2 cell_2_3 cell_3_1 cell_3_2 cell_3_3) true))
(assert
 (and (distinct cell_1_4 cell_1_5 cell_1_6 cell_2_4 cell_2_5 cell_2_6 cell_3_4 cell_3_5 cell_3_6) true))
(assert
 (and (distinct cell_1_7 cell_1_8 cell_1_9 cell_2_7 cell_2_8 cell_2_9 cell_3_7 cell_3_8 cell_3_9) true))
(assert
 (and (distinct cell_4_1 cell_4_2 cell_4_3 cell_5_1 cell_5_2 cell_5_3 cell_6_1 cell_6_2 cell_6_3) true))
(assert
 (and (distinct cell_4_4 cell_4_5 cell_4_6 cell_5_4 cell_5_5 cell_5_6 cell_6_4 cell_6_5 cell_6_6) true))
(assert
 (and (distinct cell_4_7 cell_4_8 cell_4_9 cell_5_7 cell_5_8 cell_5_9 cell_6_7 cell_6_8 cell_6_9) true))
(assert
 (and (distinct cell_7_1 cell_7_2 cell_7_3 cell_8_1 cell_8_2 cell_8_3 cell_9_1 cell_9_2 cell_9_3) true))
(assert
 (and (distinct cell_7_4 cell_7_5 cell_7_6 cell_8_4 cell_8_5 cell_8_6 cell_9_4 cell_9_5 cell_9_6) true))
(assert
 (and (distinct cell_7_7 cell_7_8 cell_7_9 cell_8_7 cell_8_8 cell_8_9 cell_9_7 cell_9_8 cell_9_9) true))
(assert
 (let (($x6430 (and (distinct cell_5_9 cell_6_8 cell_7_7 cell_8_6) true)))
 (let (($x8120 (and (distinct cell_2_9 cell_3_8 cell_4_7 cell_5_6 cell_6_5 cell_7_4 cell_8_3 cell_9_2) true)))
 (let (($x1791 (and (distinct cell_1_8 cell_2_7 cell_3_6 cell_4_5 cell_5_4 cell_6_3 cell_7_2 cell_8_1) true)))
 (let (($x8515 (and (distinct cell_1_5 cell_2_4 cell_3_3 cell_4_2) true)))
 (let (($x2674 (and (distinct cell_5_1 cell_6_2 cell_7_3 cell_8_4) true)))
 (let (($x8197 (and (distinct cell_2_1 cell_3_2 cell_4_3 cell_5_4 cell_6_5 cell_7_6 cell_8_7 cell_9_8) true)))
 (let (($x1152 (and (distinct cell_1_2 cell_2_3 cell_3_4 cell_4_5 cell_5_6 cell_6_7 cell_7_8 cell_8_9) true)))
 (let (($x2185 (and (distinct cell_1_5 cell_2_6 cell_3_7 cell_4_8) true)))
 (and $x2185 $x1152 $x8197 $x2674 $x8515 $x1791 $x8120 $x6430))))))))))
(assert
 (= cell_8_8 1))
(check-sat)
